\* Source Pyomo model name=unknown *\

max 
x1:
-10.0 x2
-10.0 x3
-10.0 x4
-10.0 x5
-10.0 x6
-10.0 x7
-10.0 x8
-10.0 x9
-10.0 x10
-10.0 x11
-10.0 x12
-10.0 x13
-10.0 x14
-10.0 x15
-10.0 x16
-10.0 x17
-10.0 x18
-10.0 x19
-10.0 x20
-10.0 x21
+11.0 x22
+11.0 x23
+11.0 x24
+11.0 x25
+11.0 x26
+11.0 x27
+11.0 x28
+11.0 x29
+11.0 x30
+11.0 x31
+11.0 x32
+11.0 x33
+11.0 x34
+11.0 x35
+11.0 x36
+11.0 x37
+11.0 x38
+11.0 x39
+11.0 x40
+11.0 x41
-220.802324411751 x42
-220.802324411751 x43
-220.802324411751 x44
-220.802324411751 x45
-220.802324411751 x46
-220.802324411751 x47
-220.802324411751 x48
-220.802324411751 x49
-220.802324411751 x50
-220.802324411751 x51
-220.802324411751 x52
-220.802324411751 x53
-220.802324411751 x54
-220.802324411751 x55
-220.802324411751 x56
-220.802324411751 x57
-220.802324411751 x58
-220.802324411751 x59
-220.802324411751 x60
-220.802324411751 x61
-220.802324411751 x62
-220.802324411751 x63
-220.802324411751 x64
-220.802324411751 x65
-220.802324411751 x66
-220.802324411751 x67
-220.802324411751 x68
-220.802324411751 x69
-220.802324411751 x70
-220.802324411751 x71
-220.802324411751 x72

s.t.

c_e_x73_:
+1 x70
+1 x74
+1 x75
-1 x76
= 0

c_e_x77_:
+1 x60
-1 x74
+1 x78
+1 x79
= 0

c_e_x80_:
+1 x54
-1 x78
+1 x81
+1 x82
= 0

c_e_x83_:
+1 x52
-1 x81
+1 x84
+1 x85
= 0

c_e_x86_:
+1 x49
-1 x84
+1 x87
+1 x88
= 0

c_e_x89_:
+1 x71
-1 x87
+1 x90
+1 x91
= 0

c_e_x92_:
-1 x59
+1 x68
-1 x90
+1 x93
+1 x94
= 0

c_e_x95_:
-1 x61
+1 x67
-1 x93
+1 x96
+1 x97
= 0

c_e_x98_:
-1 x63
+1 x72
-1 x96
+1 x99
+1 x100
= 0

c_e_x101_:
-1 x43
+1 x50
-1 x99
+1 x102
+1 x103
= 0

c_e_x104_:
-1 x66
+1 x69
-1 x102
+1 x105
+1 x106
= 0

c_e_x107_:
-1 x45
+1 x46
-1 x105
+1 x108
+1 x109
= 0

c_e_x110_:
+1 x51
-1 x56
-1 x108
+1 x111
+1 x112
= 0

c_e_x113_:
+1 x48
-1 x62
-1 x111
+1 x114
+1 x115
= 0

c_e_x116_:
-1 x47
+1 x55
-1 x114
+1 x117
+1 x118
= 0

c_e_x119_:
-1 x58
+1 x64
-1 x117
+1 x120
+1 x121
= 0

c_e_x122_:
-1 x44
+1 x65
-1 x120
+1 x123
+1 x124
= 0

c_e_x125_:
-1 x53
-1 x123
+1 x126
+1 x127
= 0

c_e_x128_:
-1 x42
-1 x126
+1 x129
+1 x130
= 0

c_e_x131_:
-1 x57
-1 x129
+1 x132
= 0

c_e_x133_:
+1 x59
-1 x70
+1 x134
+1 x135
= 0

c_e_x136_:
-1 x60
+1 x61
-1 x134
+1 x137
+1 x138
= 0

c_e_x139_:
-1 x54
+1 x63
-1 x137
+1 x140
+1 x141
= 0

c_e_x142_:
+1 x43
-1 x52
-1 x140
+1 x143
+1 x144
= 0

c_e_x145_:
-1 x49
+1 x66
-1 x143
+1 x146
+1 x147
= 0

c_e_x148_:
+1 x45
-1 x71
-1 x146
+1 x149
+1 x150
= 0

c_e_x151_:
+1 x56
-1 x68
-1 x149
+1 x152
+1 x153
= 0

c_e_x154_:
+1 x62
-1 x67
-1 x152
+1 x155
+1 x156
= 0

c_e_x157_:
+1 x47
-1 x72
-1 x155
+1 x158
+1 x159
= 0

c_e_x160_:
-1 x50
+1 x58
-1 x158
+1 x161
+1 x162
= 0

c_e_x163_:
+1 x44
-1 x69
-1 x161
+1 x164
+1 x165
= 0

c_e_x166_:
-1 x46
+1 x53
-1 x164
+1 x167
+1 x168
= 0

c_e_x169_:
+1 x42
-1 x51
-1 x167
+1 x170
+1 x171
= 0

c_e_x172_:
-1 x48
+1 x57
-1 x170
+1 x173
+1 x174
= 0

c_e_x175_:
-1 x55
-1 x173
+1 x176
+1 x177
= 0

c_e_x178_:
-1 x64
-1 x176
+1 x179
+1 x180
= 0

c_e_x181_:
-1 x65
-1 x179
+1 x182
= 0

c_e_x183_:
+1 x76
+1 x184
= 1

c_e_x185_:
+1 x75
+1 x79
+1 x82
+1 x85
+1 x88
+1 x91
+1 x94
+1 x97
+1 x100
+1 x103
+1 x106
+1 x109
+1 x112
+1 x115
+1 x118
+1 x121
+1 x124
+1 x127
+1 x130
+1 x132
+1 x135
+1 x138
+1 x141
+1 x144
+1 x147
+1 x150
+1 x153
+1 x156
+1 x159
+1 x162
+1 x165
+1 x168
+1 x171
+1 x174
+1 x177
+1 x180
+1 x182
+1 x184
= 1

c_e_x186_:
+1 x2
+1 x187
-1 x188
= 0

c_e_x189_:
+1 x3
-1 x187
+1 x190
-1 x191
= 0

c_e_x192_:
+1 x4
-1 x190
+1 x193
-1 x194
= 0

c_e_x195_:
+1 x5
-1 x193
+1 x196
-1 x197
= 0

c_e_x198_:
+1 x6
-1 x196
+1 x199
-1 x200
= 0

c_e_x201_:
+1 x7
-1 x199
+1 x202
-1 x203
= 0

c_e_x204_:
+1 x8
-1 x202
+1 x205
-1 x206
= 0

c_e_x207_:
+1 x9
-1 x205
+1 x208
-1 x209
= 0

c_e_x210_:
+1 x10
-1 x208
+1 x211
-1 x212
= 0

c_e_x213_:
+1 x11
-1 x211
+1 x214
-1 x215
= 0

c_e_x216_:
+1 x12
-1 x214
+1 x217
-1 x218
= 0

c_e_x219_:
+1 x13
-1 x217
+1 x220
-1 x221
= 0

c_e_x222_:
+1 x14
-1 x220
+1 x223
-1 x224
= 0

c_e_x225_:
+1 x15
-1 x223
+1 x226
-1 x227
= 0

c_e_x228_:
+1 x16
-1 x226
+1 x229
-1 x230
= 0

c_e_x231_:
+1 x17
-1 x229
+1 x232
-1 x233
= 0

c_e_x234_:
+1 x18
-1 x232
+1 x235
-1 x236
= 0

c_e_x237_:
+1 x19
-1 x235
+1 x238
-1 x239
= 0

c_e_x240_:
+1 x20
-1 x238
+1 x241
-1 x242
= 0

c_e_x243_:
+1 x21
-1 x241
+1 x244
-1 x245
= 0

c_e_x246_:
-1 x22
+1 x247
+1 x248
= 351.0

c_e_x249_:
-1 x23
-1 x247
+1 x250
+1 x251
= 0

c_e_x252_:
-1 x24
-1 x250
+1 x253
+1 x254
= 0

c_e_x255_:
-1 x25
-1 x253
+1 x256
+1 x257
= 0

c_e_x258_:
-1 x26
-1 x256
+1 x259
+1 x260
= 0

c_e_x261_:
-1 x27
-1 x259
+1 x262
+1 x263
= 0

c_e_x264_:
-1 x28
-1 x262
+1 x265
+1 x266
= 0

c_e_x267_:
-1 x29
-1 x265
+1 x268
+1 x269
= 0

c_e_x270_:
-1 x30
-1 x268
+1 x271
+1 x272
= 0

c_e_x273_:
-1 x31
-1 x271
+1 x274
+1 x275
= 0

c_e_x276_:
-1 x32
-1 x274
+1 x277
+1 x278
= 0

c_e_x279_:
-1 x33
-1 x277
+1 x280
+1 x281
= 0

c_e_x282_:
-1 x34
-1 x280
+1 x283
+1 x284
= 0

c_e_x285_:
-1 x35
-1 x283
+1 x286
+1 x287
= 0

c_e_x288_:
-1 x36
-1 x286
+1 x289
+1 x290
= 0

c_e_x291_:
-1 x37
-1 x289
+1 x292
+1 x293
= 0

c_e_x294_:
-1 x38
-1 x292
+1 x295
+1 x296
= 0

c_e_x297_:
-1 x39
-1 x295
+1 x298
+1 x299
= 0

c_e_x300_:
-1 x40
-1 x298
+1 x301
+1 x302
= 0

c_e_x303_:
-1 x41
-1 x301
+1 x304
+1 x305
= 0

c_e_x306_:
-1 x2
+1 x22
+1 x307
= 0

c_e_x308_:
-1 x3
+1 x23
-1 x307
+1 x309
= 0

c_e_x310_:
-1 x4
+1 x24
-1 x309
+1 x311
= 0

c_e_x312_:
-1 x5
+1 x25
-1 x311
+1 x313
= 0

c_e_x314_:
-1 x6
+1 x26
-1 x313
+1 x315
= 0

c_e_x316_:
-1 x7
+1 x27
-1 x315
+1 x317
= 0

c_e_x318_:
-1 x8
+1 x28
-1 x317
+1 x319
= 0

c_e_x320_:
-1 x9
+1 x29
-1 x319
+1 x321
= 0

c_e_x322_:
-1 x10
+1 x30
-1 x321
+1 x323
= 0

c_e_x324_:
-1 x11
+1 x31
-1 x323
+1 x325
= 0

c_e_x326_:
-1 x12
+1 x32
-1 x325
+1 x327
= 0

c_e_x328_:
-1 x13
+1 x33
-1 x327
+1 x329
= 0

c_e_x330_:
-1 x14
+1 x34
-1 x329
+1 x331
= 0

c_e_x332_:
-1 x15
+1 x35
-1 x331
+1 x333
= 0

c_e_x334_:
-1 x16
+1 x36
-1 x333
+1 x335
= 0

c_e_x336_:
-1 x17
+1 x37
-1 x335
+1 x337
= 0

c_e_x338_:
-1 x18
+1 x38
-1 x337
+1 x339
= 0

c_e_x340_:
-1 x19
+1 x39
-1 x339
+1 x341
= 0

c_e_x342_:
-1 x20
+1 x40
-1 x341
+1 x343
= 0

c_e_x344_:
-1 x21
+1 x41
-1 x343
+1 x345
= 0

c_u_x346_:
+1 x347
<= 1

c_u_x348_:
+1 x349
<= 1

c_u_x350_:
+1 x351
<= 1

c_u_x352_:
+1 x353
<= 1

c_u_x354_:
+1 x355
<= 1

c_u_x356_:
+1 x357
<= 1

c_u_x358_:
+1 x359
<= 1

c_u_x360_:
+1 x361
<= 1

c_u_x362_:
+1 x363
<= 1

c_u_x364_:
+1 x365
<= 1

c_u_x366_:
+1 x367
<= 1

c_u_x368_:
+1 x369
<= 1

c_u_x370_:
+1 x371
<= 1

c_u_x372_:
+1 x373
<= 1

c_u_x374_:
+1 x375
<= 1

c_u_x376_:
+1 x377
<= 1

c_u_x378_:
+1 x379
<= 1

c_u_x380_:
+1 x381
<= 1

c_u_x382_:
+1 x383
<= 1

c_u_x384_:
+1 x385
<= 1

c_u_x386_:
+1 x387
<= 1

c_u_x388_:
+1 x389
<= 1

c_u_x390_:
+1 x391
<= 1

c_u_x392_:
+1 x393
<= 1

c_u_x394_:
+1 x395
<= 1

c_u_x396_:
+1 x397
<= 1

c_u_x398_:
+1 x399
<= 1

c_u_x400_:
+1 x401
<= 1

c_u_x402_:
+1 x403
<= 1

c_u_x404_:
+1 x405
<= 1

c_u_x406_:
+1 x407
<= 1

c_u_x408_:
+1 x409
<= 1

c_u_x410_:
+1 x411
<= 1

c_u_x412_:
+1 x413
<= 1

c_u_x414_:
+1 x415
<= 1

c_u_x416_:
+1 x417
<= 1

c_u_x418_:
+1 x419
<= 1

c_u_x420_:
+1 x421
<= 1

c_u_x422_:
+1 x423
<= 1

c_u_x424_:
+1 x425
<= 1

c_u_x426_:
-1 x76
+1 x347
<= 0

c_u_x427_:
-1 x74
+1 x349
<= 0

c_u_x428_:
-1 x78
+1 x351
<= 0

c_u_x429_:
-1 x81
+1 x353
<= 0

c_u_x430_:
-1 x84
+1 x355
<= 0

c_u_x431_:
-1 x87
+1 x357
<= 0

c_u_x432_:
-1 x59
-1 x90
+1 x359
<= 0

c_u_x433_:
-1 x61
-1 x93
+1 x361
<= 0

c_u_x434_:
-1 x63
-1 x96
+1 x363
<= 0

c_u_x435_:
-1 x43
-1 x99
+1 x365
<= 0

c_u_x436_:
-1 x66
-1 x102
+1 x367
<= 0

c_u_x437_:
-1 x45
-1 x105
+1 x369
<= 0

c_u_x438_:
-1 x56
-1 x108
+1 x371
<= 0

c_u_x439_:
-1 x62
-1 x111
+1 x373
<= 0

c_u_x440_:
-1 x47
-1 x114
+1 x375
<= 0

c_u_x441_:
-1 x58
-1 x117
+1 x377
<= 0

c_u_x442_:
-1 x44
-1 x120
+1 x379
<= 0

c_u_x443_:
-1 x53
-1 x123
+1 x381
<= 0

c_u_x444_:
-1 x42
-1 x126
+1 x383
<= 0

c_u_x445_:
-1 x57
-1 x129
+1 x385
<= 0

c_u_x446_:
+1 x387
<= 0

c_u_x447_:
+1 x389
<= 0

c_u_x448_:
+1 x391
<= 0

c_u_x449_:
-1 x70
+1 x393
<= 0

c_u_x450_:
-1 x60
-1 x134
+1 x395
<= 0

c_u_x451_:
-1 x54
-1 x137
+1 x397
<= 0

c_u_x452_:
-1 x52
-1 x140
+1 x399
<= 0

c_u_x453_:
-1 x49
-1 x143
+1 x401
<= 0

c_u_x454_:
-1 x71
-1 x146
+1 x403
<= 0

c_u_x455_:
-1 x68
-1 x149
+1 x405
<= 0

c_u_x456_:
-1 x67
-1 x152
+1 x407
<= 0

c_u_x457_:
-1 x72
-1 x155
+1 x409
<= 0

c_u_x458_:
-1 x50
-1 x158
+1 x411
<= 0

c_u_x459_:
-1 x69
-1 x161
+1 x413
<= 0

c_u_x460_:
-1 x46
-1 x164
+1 x415
<= 0

c_u_x461_:
-1 x51
-1 x167
+1 x417
<= 0

c_u_x462_:
-1 x48
-1 x170
+1 x419
<= 0

c_u_x463_:
-1 x55
-1 x173
+1 x421
<= 0

c_u_x464_:
-1 x64
-1 x176
+1 x423
<= 0

c_u_x465_:
-1 x65
-1 x179
+1 x425
<= 0

c_u_x466_:
-1 x2
+35.0 x347
<= 0

c_u_x467_:
-1 x3
+35.0 x349
<= 0

c_u_x468_:
-1 x4
+35.0 x351
<= 0

c_u_x469_:
-1 x5
+35.0 x353
<= 0

c_u_x470_:
-1 x6
+35.0 x355
<= 0

c_u_x471_:
-1 x7
+35.0 x357
<= 0

c_u_x472_:
-1 x8
+35.0 x359
<= 0

c_u_x473_:
-1 x9
+35.0 x361
<= 0

c_u_x474_:
-1 x10
+35.0 x363
<= 0

c_u_x475_:
-1 x11
+35.0 x365
<= 0

c_u_x476_:
-1 x12
+35.0 x367
<= 0

c_u_x477_:
-1 x13
+35.0 x369
<= 0

c_u_x478_:
-1 x14
+35.0 x371
<= 0

c_u_x479_:
-1 x15
+35.0 x373
<= 0

c_u_x480_:
-1 x16
+35.0 x375
<= 0

c_u_x481_:
-1 x17
+35.0 x377
<= 0

c_u_x482_:
-1 x18
+35.0 x379
<= 0

c_u_x483_:
-1 x19
+35.0 x381
<= 0

c_u_x484_:
-1 x20
+35.0 x383
<= 0

c_u_x485_:
-1 x21
+35.0 x385
<= 0

c_u_x486_:
-1 x22
+50.0 x387
<= 0

c_u_x487_:
-1 x23
+50.0 x389
<= 0

c_u_x488_:
-1 x24
+50.0 x391
<= 0

c_u_x489_:
-1 x25
+50.0 x393
<= 0

c_u_x490_:
-1 x26
+50.0 x395
<= 0

c_u_x491_:
-1 x27
+50.0 x397
<= 0

c_u_x492_:
-1 x28
+50.0 x399
<= 0

c_u_x493_:
-1 x29
+50.0 x401
<= 0

c_u_x494_:
-1 x30
+50.0 x403
<= 0

c_u_x495_:
-1 x31
+50.0 x405
<= 0

c_u_x496_:
-1 x32
+50.0 x407
<= 0

c_u_x497_:
-1 x33
+50.0 x409
<= 0

c_u_x498_:
-1 x34
+50.0 x411
<= 0

c_u_x499_:
-1 x35
+50.0 x413
<= 0

c_u_x500_:
-1 x36
+50.0 x415
<= 0

c_u_x501_:
-1 x37
+50.0 x417
<= 0

c_u_x502_:
-1 x38
+50.0 x419
<= 0

c_u_x503_:
-1 x39
+50.0 x421
<= 0

c_u_x504_:
-1 x40
+50.0 x423
<= 0

c_u_x505_:
-1 x41
+50.0 x425
<= 0

c_u_x506_:
+1 x2
-322.0 x347
<= 0

c_u_x507_:
+1 x3
-322.0 x349
<= 0

c_u_x508_:
+1 x4
-322.0 x351
<= 0

c_u_x509_:
+1 x5
-322.0 x353
<= 0

c_u_x510_:
+1 x6
-322.0 x355
<= 0

c_u_x511_:
+1 x7
-322.0 x357
<= 0

c_u_x512_:
+1 x8
-322.0 x359
<= 0

c_u_x513_:
+1 x9
-322.0 x361
<= 0

c_u_x514_:
+1 x10
-322.0 x363
<= 0

c_u_x515_:
+1 x11
-322.0 x365
<= 0

c_u_x516_:
+1 x12
-322.0 x367
<= 0

c_u_x517_:
+1 x13
-322.0 x369
<= 0

c_u_x518_:
+1 x14
-322.0 x371
<= 0

c_u_x519_:
+1 x15
-322.0 x373
<= 0

c_u_x520_:
+1 x16
-322.0 x375
<= 0

c_u_x521_:
+1 x17
-322.0 x377
<= 0

c_u_x522_:
+1 x18
-322.0 x379
<= 0

c_u_x523_:
+1 x19
-322.0 x381
<= 0

c_u_x524_:
+1 x20
-322.0 x383
<= 0

c_u_x525_:
+1 x21
-322.0 x385
<= 0

c_u_x526_:
+1 x22
-390.0 x387
<= 0

c_u_x527_:
+1 x23
-390.0 x389
<= 0

c_u_x528_:
+1 x24
-390.0 x391
<= 0

c_u_x529_:
+1 x25
-390.0 x393
<= 0

c_u_x530_:
+1 x26
-390.0 x395
<= 0

c_u_x531_:
+1 x27
-390.0 x397
<= 0

c_u_x532_:
+1 x28
-390.0 x399
<= 0

c_u_x533_:
+1 x29
-390.0 x401
<= 0

c_u_x534_:
+1 x30
-390.0 x403
<= 0

c_u_x535_:
+1 x31
-390.0 x405
<= 0

c_u_x536_:
+1 x32
-390.0 x407
<= 0

c_u_x537_:
+1 x33
-390.0 x409
<= 0

c_u_x538_:
+1 x34
-390.0 x411
<= 0

c_u_x539_:
+1 x35
-390.0 x413
<= 0

c_u_x540_:
+1 x36
-390.0 x415
<= 0

c_u_x541_:
+1 x37
-390.0 x417
<= 0

c_u_x542_:
+1 x38
-390.0 x419
<= 0

c_u_x543_:
+1 x39
-390.0 x421
<= 0

c_u_x544_:
+1 x40
-390.0 x423
<= 0

c_u_x545_:
+1 x41
-390.0 x425
<= 0

c_l_x546_:
+1 x188
>= 33.0

c_l_x547_:
+1 x191
>= 33.0

c_l_x548_:
+1 x194
>= 33.0

c_l_x549_:
+1 x197
>= 33.0

c_l_x550_:
+1 x200
>= 33.0

c_l_x551_:
+1 x203
>= 33.0

c_l_x552_:
+1 x206
>= 33.0

c_l_x553_:
+1 x209
>= 33.0

c_l_x554_:
+1 x212
>= 33.0

c_l_x555_:
+1 x215
>= 33.0

c_l_x556_:
+1 x218
>= 33.0

c_l_x557_:
+1 x221
>= 33.0

c_l_x558_:
+1 x224
>= 33.0

c_l_x559_:
+1 x227
>= 33.0

c_l_x560_:
+1 x230
>= 33.0

c_l_x561_:
+1 x233
>= 33.0

c_l_x562_:
+1 x236
>= 33.0

c_l_x563_:
+1 x239
>= 33.0

c_l_x564_:
+1 x242
>= 33.0

c_l_x565_:
+1 x245
>= 33.0

c_l_x566_:
+1 x248
>= 39.0

c_l_x567_:
+1 x251
>= 39.0

c_l_x568_:
+1 x254
>= 39.0

c_l_x569_:
+1 x257
>= 39.0

c_l_x570_:
+1 x260
>= 39.0

c_l_x571_:
+1 x263
>= 39.0

c_l_x572_:
+1 x266
>= 39.0

c_l_x573_:
+1 x269
>= 39.0

c_l_x574_:
+1 x272
>= 39.0

c_l_x575_:
+1 x275
>= 39.0

c_l_x576_:
+1 x278
>= 39.0

c_l_x577_:
+1 x281
>= 39.0

c_l_x578_:
+1 x284
>= 39.0

c_l_x579_:
+1 x287
>= 39.0

c_l_x580_:
+1 x290
>= 39.0

c_l_x581_:
+1 x293
>= 39.0

c_l_x582_:
+1 x296
>= 39.0

c_l_x583_:
+1 x299
>= 39.0

c_l_x584_:
+1 x302
>= 39.0

c_l_x585_:
+1 x305
>= 39.0

c_u_x586_:
+1 x188
<= 99.0

c_u_x587_:
+1 x191
<= 99.0

c_u_x588_:
+1 x194
<= 99.0

c_u_x589_:
+1 x197
<= 99.0

c_u_x590_:
+1 x200
<= 99.0

c_u_x591_:
+1 x203
<= 99.0

c_u_x592_:
+1 x206
<= 99.0

c_u_x593_:
+1 x209
<= 99.0

c_u_x594_:
+1 x212
<= 99.0

c_u_x595_:
+1 x215
<= 99.0

c_u_x596_:
+1 x218
<= 99.0

c_u_x597_:
+1 x221
<= 99.0

c_u_x598_:
+1 x224
<= 99.0

c_u_x599_:
+1 x227
<= 99.0

c_u_x600_:
+1 x230
<= 99.0

c_u_x601_:
+1 x233
<= 99.0

c_u_x602_:
+1 x236
<= 99.0

c_u_x603_:
+1 x239
<= 99.0

c_u_x604_:
+1 x242
<= 99.0

c_u_x605_:
+1 x245
<= 99.0

c_u_x606_:
+1 x248
<= 39.0

c_u_x607_:
+1 x251
<= 39.0

c_u_x608_:
+1 x254
<= 39.0

c_u_x609_:
+1 x257
<= 39.0

c_u_x610_:
+1 x260
<= 39.0

c_u_x611_:
+1 x263
<= 39.0

c_u_x612_:
+1 x266
<= 39.0

c_u_x613_:
+1 x269
<= 39.0

c_u_x614_:
+1 x272
<= 39.0

c_u_x615_:
+1 x275
<= 39.0

c_u_x616_:
+1 x278
<= 39.0

c_u_x617_:
+1 x281
<= 39.0

c_u_x618_:
+1 x284
<= 39.0

c_u_x619_:
+1 x287
<= 39.0

c_u_x620_:
+1 x290
<= 39.0

c_u_x621_:
+1 x293
<= 39.0

c_u_x622_:
+1 x296
<= 39.0

c_u_x623_:
+1 x299
<= 39.0

c_u_x624_:
+1 x302
<= 39.0

c_u_x625_:
+1 x305
<= 39.0

c_l_x626_:
+1 x187
>= 0

c_l_x627_:
+1 x190
>= 0

c_l_x628_:
+1 x193
>= 0

c_l_x629_:
+1 x196
>= 0

c_l_x630_:
+1 x199
>= 0

c_l_x631_:
+1 x202
>= 0

c_l_x632_:
+1 x205
>= 0

c_l_x633_:
+1 x208
>= 0

c_l_x634_:
+1 x211
>= 0

c_l_x635_:
+1 x214
>= 0

c_l_x636_:
+1 x217
>= 0

c_l_x637_:
+1 x220
>= 0

c_l_x638_:
+1 x223
>= 0

c_l_x639_:
+1 x226
>= 0

c_l_x640_:
+1 x229
>= 0

c_l_x641_:
+1 x232
>= 0

c_l_x642_:
+1 x235
>= 0

c_l_x643_:
+1 x238
>= 0

c_l_x644_:
+1 x241
>= 0

c_l_x645_:
+1 x244
>= 0

c_l_x646_:
+1 x247
>= 0

c_l_x647_:
+1 x250
>= 0

c_l_x648_:
+1 x253
>= 0

c_l_x649_:
+1 x256
>= 0

c_l_x650_:
+1 x259
>= 0

c_l_x651_:
+1 x262
>= 0

c_l_x652_:
+1 x265
>= 0

c_l_x653_:
+1 x268
>= 0

c_l_x654_:
+1 x271
>= 0

c_l_x655_:
+1 x274
>= 0

c_l_x656_:
+1 x277
>= 0

c_l_x657_:
+1 x280
>= 0

c_l_x658_:
+1 x283
>= 0

c_l_x659_:
+1 x286
>= 0

c_l_x660_:
+1 x289
>= 0

c_l_x661_:
+1 x292
>= 0

c_l_x662_:
+1 x295
>= 0

c_l_x663_:
+1 x298
>= 0

c_l_x664_:
+1 x301
>= 0

c_l_x665_:
+1 x304
>= 0

c_u_x666_:
+1 x187
<= 594.0

c_u_x667_:
+1 x190
<= 594.0

c_u_x668_:
+1 x193
<= 594.0

c_u_x669_:
+1 x196
<= 594.0

c_u_x670_:
+1 x199
<= 594.0

c_u_x671_:
+1 x202
<= 594.0

c_u_x672_:
+1 x205
<= 594.0

c_u_x673_:
+1 x208
<= 594.0

c_u_x674_:
+1 x211
<= 594.0

c_u_x675_:
+1 x214
<= 594.0

c_u_x676_:
+1 x217
<= 594.0

c_u_x677_:
+1 x220
<= 594.0

c_u_x678_:
+1 x223
<= 594.0

c_u_x679_:
+1 x226
<= 594.0

c_u_x680_:
+1 x229
<= 594.0

c_u_x681_:
+1 x232
<= 594.0

c_u_x682_:
+1 x235
<= 594.0

c_u_x683_:
+1 x238
<= 594.0

c_u_x684_:
+1 x241
<= 594.0

c_u_x685_:
+1 x244
<= 594.0

c_u_x686_:
+1 x247
<= 351.0

c_u_x687_:
+1 x250
<= 351.0

c_u_x688_:
+1 x253
<= 351.0

c_u_x689_:
+1 x256
<= 351.0

c_u_x690_:
+1 x259
<= 351.0

c_u_x691_:
+1 x262
<= 351.0

c_u_x692_:
+1 x265
<= 351.0

c_u_x693_:
+1 x268
<= 351.0

c_u_x694_:
+1 x271
<= 351.0

c_u_x695_:
+1 x274
<= 351.0

c_u_x696_:
+1 x277
<= 351.0

c_u_x697_:
+1 x280
<= 351.0

c_u_x698_:
+1 x283
<= 351.0

c_u_x699_:
+1 x286
<= 351.0

c_u_x700_:
+1 x289
<= 351.0

c_u_x701_:
+1 x292
<= 351.0

c_u_x702_:
+1 x295
<= 351.0

c_u_x703_:
+1 x298
<= 351.0

c_u_x704_:
+1 x301
<= 351.0

c_u_x705_:
+1 x304
<= 351.0

c_u_x706_:
+1 x307
<= 200.0

c_u_x707_:
+1 x309
<= 200.0

c_u_x708_:
+1 x311
<= 200.0

c_u_x709_:
+1 x313
<= 200.0

c_u_x710_:
+1 x315
<= 200.0

c_u_x711_:
+1 x317
<= 200.0

c_u_x712_:
+1 x319
<= 200.0

c_u_x713_:
+1 x321
<= 200.0

c_u_x714_:
+1 x323
<= 200.0

c_u_x715_:
+1 x325
<= 200.0

c_u_x716_:
+1 x327
<= 200.0

c_u_x717_:
+1 x329
<= 200.0

c_u_x718_:
+1 x331
<= 200.0

c_u_x719_:
+1 x333
<= 200.0

c_u_x720_:
+1 x335
<= 200.0

c_u_x721_:
+1 x337
<= 200.0

c_u_x722_:
+1 x339
<= 200.0

c_u_x723_:
+1 x341
<= 200.0

c_u_x724_:
+1 x343
<= 200.0

c_u_x725_:
+1 x345
<= 200.0

c_l_x726_:
+1 x307
>= 0

c_l_x727_:
+1 x309
>= 0

c_l_x728_:
+1 x311
>= 0

c_l_x729_:
+1 x313
>= 0

c_l_x730_:
+1 x315
>= 0

c_l_x731_:
+1 x317
>= 0

c_l_x732_:
+1 x319
>= 0

c_l_x733_:
+1 x321
>= 0

c_l_x734_:
+1 x323
>= 0

c_l_x735_:
+1 x325
>= 0

c_l_x736_:
+1 x327
>= 0

c_l_x737_:
+1 x329
>= 0

c_l_x738_:
+1 x331
>= 0

c_l_x739_:
+1 x333
>= 0

c_l_x740_:
+1 x335
>= 0

c_l_x741_:
+1 x337
>= 0

c_l_x742_:
+1 x339
>= 0

c_l_x743_:
+1 x341
>= 0

c_l_x744_:
+1 x343
>= 0

c_l_x745_:
+1 x345
>= 0

bounds
   0 <= x2 <= +1e30
   0 <= x3 <= +1e30
   0 <= x4 <= +1e30
   0 <= x5 <= +1e30
   0 <= x6 <= +1e30
   0 <= x7 <= +1e30
   0 <= x8 <= +1e30
   0 <= x9 <= +1e30
   0 <= x10 <= +1e30
   0 <= x11 <= +1e30
   0 <= x12 <= +1e30
   0 <= x13 <= +1e30
   0 <= x14 <= +1e30
   0 <= x15 <= +1e30
   0 <= x16 <= +1e30
   0 <= x17 <= +1e30
   0 <= x18 <= +1e30
   0 <= x19 <= +1e30
   0 <= x20 <= +1e30
   0 <= x21 <= +1e30
   0 <= x22 <= +1e30
   0 <= x23 <= +1e30
   0 <= x24 <= +1e30
   0 <= x25 <= +1e30
   0 <= x26 <= +1e30
   0 <= x27 <= +1e30
   0 <= x28 <= +1e30
   0 <= x29 <= +1e30
   0 <= x30 <= +1e30
   0 <= x31 <= +1e30
   0 <= x32 <= +1e30
   0 <= x33 <= +1e30
   0 <= x34 <= +1e30
   0 <= x35 <= +1e30
   0 <= x36 <= +1e30
   0 <= x37 <= +1e30
   0 <= x38 <= +1e30
   0 <= x39 <= +1e30
   0 <= x40 <= +1e30
   0 <= x41 <= +1e30
   0 <= x42 <= 1
   0 <= x43 <= 1
   0 <= x44 <= 1
   0 <= x45 <= 1
   0 <= x46 <= 1
   0 <= x47 <= 1
   0 <= x48 <= 1
   0 <= x49 <= 1
   0 <= x50 <= 1
   0 <= x51 <= 1
   0 <= x52 <= 1
   0 <= x53 <= 1
   0 <= x54 <= 1
   0 <= x55 <= 1
   0 <= x56 <= 1
   0 <= x57 <= 1
   0 <= x58 <= 1
   0 <= x59 <= 1
   0 <= x60 <= 1
   0 <= x61 <= 1
   0 <= x62 <= 1
   0 <= x63 <= 1
   0 <= x64 <= 1
   0 <= x65 <= 1
   0 <= x66 <= 1
   0 <= x67 <= 1
   0 <= x68 <= 1
   0 <= x69 <= 1
   0 <= x70 <= 1
   0 <= x71 <= 1
   0 <= x72 <= 1
   0 <= x74 <= 1
   0 <= x75 <= 1
   0 <= x76 <= 1
   0 <= x78 <= 1
   0 <= x79 <= 1
   0 <= x81 <= 1
   0 <= x82 <= 1
   0 <= x84 <= 1
   0 <= x85 <= 1
   0 <= x87 <= 1
   0 <= x88 <= 1
   0 <= x90 <= 1
   0 <= x91 <= 1
   0 <= x93 <= 1
   0 <= x94 <= 1
   0 <= x96 <= 1
   0 <= x97 <= 1
   0 <= x99 <= 1
   0 <= x100 <= 1
   0 <= x102 <= 1
   0 <= x103 <= 1
   0 <= x105 <= 1
   0 <= x106 <= 1
   0 <= x108 <= 1
   0 <= x109 <= 1
   0 <= x111 <= 1
   0 <= x112 <= 1
   0 <= x114 <= 1
   0 <= x115 <= 1
   0 <= x117 <= 1
   0 <= x118 <= 1
   0 <= x120 <= 1
   0 <= x121 <= 1
   0 <= x123 <= 1
   0 <= x124 <= 1
   0 <= x126 <= 1
   0 <= x127 <= 1
   0 <= x129 <= 1
   0 <= x130 <= 1
   0 <= x132 <= 1
   0 <= x134 <= 1
   0 <= x135 <= 1
   0 <= x137 <= 1
   0 <= x138 <= 1
   0 <= x140 <= 1
   0 <= x141 <= 1
   0 <= x143 <= 1
   0 <= x144 <= 1
   0 <= x146 <= 1
   0 <= x147 <= 1
   0 <= x149 <= 1
   0 <= x150 <= 1
   0 <= x152 <= 1
   0 <= x153 <= 1
   0 <= x155 <= 1
   0 <= x156 <= 1
   0 <= x158 <= 1
   0 <= x159 <= 1
   0 <= x161 <= 1
   0 <= x162 <= 1
   0 <= x164 <= 1
   0 <= x165 <= 1
   0 <= x167 <= 1
   0 <= x168 <= 1
   0 <= x170 <= 1
   0 <= x171 <= 1
   0 <= x173 <= 1
   0 <= x174 <= 1
   0 <= x176 <= 1
   0 <= x177 <= 1
   0 <= x179 <= 1
   0 <= x180 <= 1
   0 <= x182 <= 1
   0 <= x184 <= 1
   0 <= x187 <= +1e30
   0 <= x188 <= +1e30
   0 <= x190 <= +1e30
   0 <= x191 <= +1e30
   0 <= x193 <= +1e30
   0 <= x194 <= +1e30
   0 <= x196 <= +1e30
   0 <= x197 <= +1e30
   0 <= x199 <= +1e30
   0 <= x200 <= +1e30
   0 <= x202 <= +1e30
   0 <= x203 <= +1e30
   0 <= x205 <= +1e30
   0 <= x206 <= +1e30
   0 <= x208 <= +1e30
   0 <= x209 <= +1e30
   0 <= x211 <= +1e30
   0 <= x212 <= +1e30
   0 <= x214 <= +1e30
   0 <= x215 <= +1e30
   0 <= x217 <= +1e30
   0 <= x218 <= +1e30
   0 <= x220 <= +1e30
   0 <= x221 <= +1e30
   0 <= x223 <= +1e30
   0 <= x224 <= +1e30
   0 <= x226 <= +1e30
   0 <= x227 <= +1e30
   0 <= x229 <= +1e30
   0 <= x230 <= +1e30
   0 <= x232 <= +1e30
   0 <= x233 <= +1e30
   0 <= x235 <= +1e30
   0 <= x236 <= +1e30
   0 <= x238 <= +1e30
   0 <= x239 <= +1e30
   0 <= x241 <= +1e30
   0 <= x242 <= +1e30
   0 <= x244 <= +1e30
   0 <= x245 <= +1e30
   0 <= x247 <= +1e30
   0 <= x248 <= +1e30
   0 <= x250 <= +1e30
   0 <= x251 <= +1e30
   0 <= x253 <= +1e30
   0 <= x254 <= +1e30
   0 <= x256 <= +1e30
   0 <= x257 <= +1e30
   0 <= x259 <= +1e30
   0 <= x260 <= +1e30
   0 <= x262 <= +1e30
   0 <= x263 <= +1e30
   0 <= x265 <= +1e30
   0 <= x266 <= +1e30
   0 <= x268 <= +1e30
   0 <= x269 <= +1e30
   0 <= x271 <= +1e30
   0 <= x272 <= +1e30
   0 <= x274 <= +1e30
   0 <= x275 <= +1e30
   0 <= x277 <= +1e30
   0 <= x278 <= +1e30
   0 <= x280 <= +1e30
   0 <= x281 <= +1e30
   0 <= x283 <= +1e30
   0 <= x284 <= +1e30
   0 <= x286 <= +1e30
   0 <= x287 <= +1e30
   0 <= x289 <= +1e30
   0 <= x290 <= +1e30
   0 <= x292 <= +1e30
   0 <= x293 <= +1e30
   0 <= x295 <= +1e30
   0 <= x296 <= +1e30
   0 <= x298 <= +1e30
   0 <= x299 <= +1e30
   0 <= x301 <= +1e30
   0 <= x302 <= +1e30
   0 <= x304 <= +1e30
   0 <= x305 <= +1e30
   0 <= x307 <= +1e30
   0 <= x309 <= +1e30
   0 <= x311 <= +1e30
   0 <= x313 <= +1e30
   0 <= x315 <= +1e30
   0 <= x317 <= +1e30
   0 <= x319 <= +1e30
   0 <= x321 <= +1e30
   0 <= x323 <= +1e30
   0 <= x325 <= +1e30
   0 <= x327 <= +1e30
   0 <= x329 <= +1e30
   0 <= x331 <= +1e30
   0 <= x333 <= +1e30
   0 <= x335 <= +1e30
   0 <= x337 <= +1e30
   0 <= x339 <= +1e30
   0 <= x341 <= +1e30
   0 <= x343 <= +1e30
   0 <= x345 <= +1e30
   0 <= x347 <= 1
   0 <= x349 <= 1
   0 <= x351 <= 1
   0 <= x353 <= 1
   0 <= x355 <= 1
   0 <= x357 <= 1
   0 <= x359 <= 1
   0 <= x361 <= 1
   0 <= x363 <= 1
   0 <= x365 <= 1
   0 <= x367 <= 1
   0 <= x369 <= 1
   0 <= x371 <= 1
   0 <= x373 <= 1
   0 <= x375 <= 1
   0 <= x377 <= 1
   0 <= x379 <= 1
   0 <= x381 <= 1
   0 <= x383 <= 1
   0 <= x385 <= 1
   0 <= x387 <= 1
   0 <= x389 <= 1
   0 <= x391 <= 1
   0 <= x393 <= 1
   0 <= x395 <= 1
   0 <= x397 <= 1
   0 <= x399 <= 1
   0 <= x401 <= 1
   0 <= x403 <= 1
   0 <= x405 <= 1
   0 <= x407 <= 1
   0 <= x409 <= 1
   0 <= x411 <= 1
   0 <= x413 <= 1
   0 <= x415 <= 1
   0 <= x417 <= 1
   0 <= x419 <= 1
   0 <= x421 <= 1
   0 <= x423 <= 1
   0 <= x425 <= 1
binary
  x42
  x43
  x44
  x45
  x46
  x47
  x48
  x49
  x50
  x51
  x52
  x53
  x54
  x55
  x56
  x57
  x58
  x59
  x60
  x61
  x62
  x63
  x64
  x65
  x66
  x67
  x68
  x69
  x70
  x71
  x72
  x74
  x75
  x76
  x78
  x79
  x81
  x82
  x84
  x85
  x87
  x88
  x90
  x91
  x93
  x94
  x96
  x97
  x99
  x100
  x102
  x103
  x105
  x106
  x108
  x109
  x111
  x112
  x114
  x115
  x117
  x118
  x120
  x121
  x123
  x124
  x126
  x127
  x129
  x130
  x132
  x134
  x135
  x137
  x138
  x140
  x141
  x143
  x144
  x146
  x147
  x149
  x150
  x152
  x153
  x155
  x156
  x158
  x159
  x161
  x162
  x164
  x165
  x167
  x168
  x170
  x171
  x173
  x174
  x176
  x177
  x179
  x180
  x182
  x184
  x347
  x349
  x351
  x353
  x355
  x357
  x359
  x361
  x363
  x365
  x367
  x369
  x371
  x373
  x375
  x377
  x379
  x381
  x383
  x385
  x387
  x389
  x391
  x393
  x395
  x397
  x399
  x401
  x403
  x405
  x407
  x409
  x411
  x413
  x415
  x417
  x419
  x421
  x423
  x425
end
